certificates/rado_a3_c74_N24.cnf
c Rad2 upper bound instance: x1 + 3*x2 - x3 = 74, interval [1,24]
p cnf 24 184
1 3 24 0
-1 -3 -24 0
2 4 24 0
-2 -4 -24 0
3 5 24 0
-3 -5 -24 0
1 6 23 0
-1 -6 -23 0
4 6 24 0
-4 -6 -24 0
2 7 23 0
-2 -7 -23 0
5 7 24 0
-5 -7 -24 0
3 8 23 0
-3 -8 -23 0
6 8 24 0
-6 -8 -24 0
1 9 22 0
-1 -9 -22 0
4 9 23 0
-4 -9 -23 0
7 9 24 0
-7 -9 -24 0
2 10 22 0
-2 -10 -22 0
5 10 23 0
-5 -10 -23 0
8 10 24 0
-8 -10 -24 0
3 11 22 0
-3 -11 -22 0
6 11 23 0
-6 -11 -23 0
9 11 24 0
-9 -11 -24 0
1 12 21 0
-1 -12 -21 0
4 12 22 0
-4 -12 -22 0
7 12 23 0
-7 -12 -23 0
10 12 24 0
-10 -12 -24 0
2 13 21 0
-2 -13 -21 0
5 13 22 0
-5 -13 -22 0
8 13 23 0
-8 -13 -23 0
11 13 24 0
-11 -13 -24 0
3 14 21 0
-3 -14 -21 0
6 14 22 0
-6 -14 -22 0
9 14 23 0
-9 -14 -23 0
12 14 24 0
-12 -14 -24 0
1 15 20 0
-1 -15 -20 0
4 15 21 0
-4 -15 -21 0
7 15 22 0
-7 -15 -22 0
10 15 23 0
-10 -15 -23 0
13 15 24 0
-13 -15 -24 0
2 16 20 0
-2 -16 -20 0
5 16 21 0
-5 -16 -21 0
8 16 22 0
-8 -16 -22 0
11 16 23 0
-11 -16 -23 0
14 16 24 0
-14 -16 -24 0
3 17 20 0
-3 -17 -20 0
6 17 21 0
-6 -17 -21 0
9 17 22 0
-9 -17 -22 0
12 17 23 0
-12 -17 -23 0
15 17 24 0
-15 -17 -24 0
1 18 19 0
-1 -18 -19 0
4 18 20 0
-4 -18 -20 0
7 18 21 0
-7 -18 -21 0
10 18 22 0
-10 -18 -22 0
13 18 23 0
-13 -18 -23 0
16 18 24 0
-16 -18 -24 0
2 19 0
-2 -19 0
5 19 20 0
-5 -19 -20 0
8 19 21 0
-8 -19 -21 0
11 19 22 0
-11 -19 -22 0
14 19 23 0
-14 -19 -23 0
17 19 24 0
-17 -19 -24 0
3 19 20 0
-3 -19 -20 0
6 20 0
-6 -20 0
9 20 21 0
-9 -20 -21 0
12 20 22 0
-12 -20 -22 0
15 20 23 0
-15 -20 -23 0
18 20 24 0
-18 -20 -24 0
1 18 21 0
-1 -18 -21 0
4 19 21 0
-4 -19 -21 0
7 20 21 0
-7 -20 -21 0
10 21 0
-10 -21 0
13 21 22 0
-13 -21 -22 0
16 21 23 0
-16 -21 -23 0
19 21 24 0
-19 -21 -24 0
2 18 22 0
-2 -18 -22 0
5 19 22 0
-5 -19 -22 0
8 20 22 0
-8 -20 -22 0
11 21 22 0
-11 -21 -22 0
14 22 0
-14 -22 0
17 22 23 0
-17 -22 -23 0
20 22 24 0
-20 -22 -24 0
3 18 23 0
-3 -18 -23 0
6 19 23 0
-6 -19 -23 0
9 20 23 0
-9 -20 -23 0
12 21 23 0
-12 -21 -23 0
15 22 23 0
-15 -22 -23 0
18 23 0
-18 -23 0
21 23 24 0
-21 -23 -24 0
1 17 24 0
-1 -17 -24 0
4 18 24 0
-4 -18 -24 0
7 19 24 0
-7 -19 -24 0
10 20 24 0
-10 -20 -24 0
13 21 24 0
-13 -21 -24 0
16 22 24 0
-16 -22 -24 0
19 23 24 0
-19 -23 -24 0
22 24 0
-22 -24 0
