certificates/rado_a3_c74_N24.drat
-24 0
22 0
-14 0
12 0
16 0
-4 0
-20 0
-8 0
2 0
6 0
18 0
10 0
-19 0
0
